<?xml version="1.0" encoding="UTF-8"?><osil xmlns="os.optimizationservices.org" xmlns:xsi="http://www.w3.org/2001/XMLSchema-instance" xsi:schemaLocation="os.optimizationservices.org http://www.optimizationservices.org/schemas/2.0/OSiL.xsd"><instanceHeader><name>nvs05</name></instanceHeader><instanceData><variables numberOfVariables="8"><var name="i1" type="I" lb="1" ub="200"/><var name="i2" type="I" lb="1" ub="200"/><var name="x3" lb="1e-2" ub="200"/><var name="x4" lb="1e-2" ub="200"/><var name="x5" lb="-INF"/><var name="x6" lb="-INF"/><var name="x7" lb="-INF"/><var name="x8" lb="-INF"/></variables><objectives><obj maxOrMin="min" name="defObj_objvar" numberOfObjCoef="0"/></objectives><constraints numberOfConstraints="9"><con name="e1" lb="0" ub="0"/><con name="e2" lb="0" ub="0"/><con name="e3" lb="0" ub="0"/><con name="e4" lb="0" ub="0"/><con name="e5" lb="-1.36e4"/><con name="e6" lb="-3e4"/><con name="e7" lb="0"/><con name="e8" lb="6e3"/><con name="e9" lb="-.25"/></constraints><linearConstraintCoefficients numberOfValues="6"><start><el mult="5" incr="1">0</el><el mult="2">4</el><el mult="3">6</el></start><colIdx><el>4</el><el>6</el><el>5</el><el>7</el><el>1</el><el>2</el></colIdx><value><el mult="5">1</el><el>-1</el></value></linearConstraintCoefficients><nonlinearExpressions numberOfNonlinearExpressions="9"><nl idx="-1"><sum><product><square><variable idx="2"/></square><number value="1.10471"/><variable idx="3"/></product><product><variable idx="0" coef="4.811e-2"/><variable idx="1"/><sum><number value="14"/><variable idx="3"/></sum></product></sum></nl><nl idx="0"><negate><divide><number value="4243.28147100424"/><product><variable idx="2"/><variable idx="3"/></product></divide></negate></nl><nl idx="1"><negate><sqrt><sum><product><square><variable idx="3"/></square><number value=".25"/></product><square><sum><variable idx="0" coef=".5"/><variable idx="2" coef=".5"/></sum></square></sum></sqrt></negate></nl><nl idx="2"><negate><divide><product><sum><number value="59405.9405940594"/><variable idx="3" coef="2121.64073550212"/></sum><variable idx="6"/></product><product><variable idx="2"/><variable idx="3"/><sum><product><square><variable idx="3"/></square><number value="8.33333333333333e-2"/></product><square><sum><variable idx="0" coef=".5"/><variable idx="2" coef=".5"/></sum></square></sum></product></divide></negate></nl><nl idx="3"><negate><divide><variable idx="3" coef=".5"/><variable idx="6"/></divide></negate></nl><nl idx="4"><negate><sqrt><sum><square><variable idx="4"/></square><product><variable idx="4" coef="2"/><variable idx="5"/><variable idx="7"/></product><square><variable idx="5"/></square></sum></sqrt></negate></nl><nl idx="5"><negate><divide><number value="5.04e5"/><product><square><variable idx="0"/></square><variable idx="1"/></product></divide></negate></nl><nl idx="7"><product><sqrt><product><power><variable idx="1"/><number value="3"/></power><number value="1e15"/><variable idx="0"/><variable idx="0"/><power><variable idx="1"/><number value="3"/></power></product></sqrt><number value="2.04744897959184e-2"/><sum><number value="1"/><variable idx="0" coef="-2.82346219657891e-2"/></sum></product></nl><nl idx="8"><negate><divide><number value=".21952"/><product><power><variable idx="0"/><number value="3"/></power><variable idx="1"/></product></divide></negate></nl></nonlinearExpressions></instanceData></osil>